NAME : prob25b
TYPE : PDTSP
DIMENSION : 51
EDGE_WEIGHT_TYPE : EUC_2D
NODE_COORD_SECTION
1 251 328
2 112 342
3 537 317
4 45 591
5 411 159
6 185 360
7 947 533
8 66 639
9 673 117
10 347 717
11 331 113
12 408 695
13 347 578
14 638 382
15 318 858
16 875 884
17 585 595
18 697 715
19 282 32
20 978 507
21 607 269
22 67 878
23 284 935
24 700 791
25 20 227
26 675 954
27 800 647
28 990 751
29 220 292
30 414 557
31 974 152
32 34 631
33 568 441
34 498 363
35 391 197
36 207 229
37 53 592
38 486 303
39 375 205
40 479 459
41 472 591
42 642 137
43 655 505
44 988 626
45 714 987
46 623 721
47 832 922
48 409 255
49 604 867
50 294 593
51 433 541
PICKUP_AND_DELIVERY_SECTION
1 0 0 0 0 0 0
2 0 0 0 0 27 0
3 0 0 0 0 28 0
4 0 0 0 0 29 0
5 0 0 0 0 30 0
6 0 0 0 0 31 0
7 0 0 0 0 32 0
8 0 0 0 0 33 0
9 0 0 0 0 34 0
10 0 0 0 0 35 0
11 0 0 0 0 36 0
12 0 0 0 0 37 0
13 0 0 0 0 38 0
14 0 0 0 0 39 0
15 0 0 0 0 40 0
16 0 0 0 0 41 0
17 0 0 0 0 42 0
18 0 0 0 0 43 0
19 0 0 0 0 44 0
20 0 0 0 0 45 0
21 0 0 0 0 46 0
22 0 0 0 0 47 0
23 0 0 0 0 48 0
24 0 0 0 0 49 0
25 0 0 0 0 50 0
26 0 0 0 0 51 0
27 0 0 0 0 0 2
28 0 0 0 0 0 3
29 0 0 0 0 0 4
30 0 0 0 0 0 5
31 0 0 0 0 0 6
32 0 0 0 0 0 7
33 0 0 0 0 0 8
34 0 0 0 0 0 9
35 0 0 0 0 0 10
36 0 0 0 0 0 11
37 0 0 0 0 0 12
38 0 0 0 0 0 13
39 0 0 0 0 0 14
40 0 0 0 0 0 15
41 0 0 0 0 0 16
42 0 0 0 0 0 17
43 0 0 0 0 0 18
44 0 0 0 0 0 19
45 0 0 0 0 0 20
46 0 0 0 0 0 21
47 0 0 0 0 0 22
48 0 0 0 0 0 23
49 0 0 0 0 0 24
50 0 0 0 0 0 25
51 0 0 0 0 0 26
DEPOT_SECTION
1 
-1
EOF
